7
9223372036854775807 3 93 13 33 9 57 
4 9223372036854775807 77 42 21 16 34 
45 17 9223372036854775807 36 16 28 25 
39 90 80 9223372036854775807 56 7 91 
28 46 88 33 9223372036854775807 25 57 
3 88 18 46 92 9223372036854775807 7 
44 26 33 27 84 39 9223372036854775807 
